\* Stac_MILP *\
Minimize
OBJ: T_0_0 + T_1_0 + T_2_0 + T_3_0 + T_4_0 + T__1_0 + T__2_0 + T__3_0 + T__4_0
Subject To
c01_sumT_0: T_0_0 + T_1_0 + T_2_0 + T_3_0 + T_4_0 + T__1_0 + T__2_0 + T__3_0
 + T__4_0 = 1
c01_sumT_1: T_0_1 + T_1_1 + T_2_1 + T_3_1 + T_4_1 + T__1_1 + T__2_1 + T__3_1
 + T__4_1 = 1
c01_sumT_2: T_0_2 + T_1_2 + T_2_2 + T_3_2 + T_4_2 + T__1_2 + T__2_2 + T__3_2
 + T__4_2 = 1
c05_sumC_iA: c_0_A + c_1_A + c_2_A + c_3_A + c_4_A = 50
c05_sumC_iB: c_0_B + c_1_B + c_2_B + c_3_B + c_4_B = 50
c06_d_k0_j0_m0_iA: - 50 T_0_0 - 0.990049833749 c_0_A + d_0_0_0_A >= -50
c06_d_k0_j0_m0_iB: - 50 T_0_0 - 0.980198673307 c_0_B + d_0_0_0_B >= -50
c06_d_k0_j0_m1_iA: - 50 T_0_1 - 0.00990049833749 c_0_A + d_0_0_1_A >= -50
c06_d_k0_j0_m1_iB: - 50 T_0_1 - 0.0196039734661 c_0_B + d_0_0_1_B >= -50
c06_d_k0_j0_m2_iA: - 50 T_0_2 - 4.96679133402e-05 c_0_A + d_0_0_2_A >= -50
c06_d_k0_j0_m2_iB: - 50 T_0_2 - 0.00019735322711 c_0_B + d_0_0_2_B >= -50
c06_d_k0_j1_m0_iA: - 50 T_1_0 - 0.990049833749 c_0_A + d_0_1_0_A >= -50
c06_d_k0_j1_m0_iB: - 50 T_1_0 - 0.980198673307 c_0_B + d_0_1_0_B >= -50
c06_d_k0_j1_m1_iA: - 50 T_1_1 - 0.00990049833749 c_0_A + d_0_1_1_A >= -50
c06_d_k0_j1_m1_iB: - 50 T_1_1 - 0.0196039734661 c_0_B + d_0_1_1_B >= -50
c06_d_k0_j1_m2_iA: - 50 T_1_2 - 4.96679133402e-05 c_0_A + d_0_1_2_A >= -50
c06_d_k0_j1_m2_iB: - 50 T_1_2 - 0.00019735322711 c_0_B + d_0_1_2_B >= -50
c06_d_k0_j2_m0_iA: - 50 T_2_0 - 0.990049833749 c_0_A + d_0_2_0_A >= -50
c06_d_k0_j2_m0_iB: - 50 T_2_0 - 0.980198673307 c_0_B + d_0_2_0_B >= -50
c06_d_k0_j2_m1_iA: - 50 T_2_1 - 0.00990049833749 c_0_A + d_0_2_1_A >= -50
c06_d_k0_j2_m1_iB: - 50 T_2_1 - 0.0196039734661 c_0_B + d_0_2_1_B >= -50
c06_d_k0_j2_m2_iA: - 50 T_2_2 - 4.96679133402e-05 c_0_A + d_0_2_2_A >= -50
c06_d_k0_j2_m2_iB: - 50 T_2_2 - 0.00019735322711 c_0_B + d_0_2_2_B >= -50
c06_d_k0_j3_m0_iA: - 50 T_3_0 - 0.990049833749 c_0_A + d_0_3_0_A >= -50
c06_d_k0_j3_m0_iB: - 50 T_3_0 - 0.980198673307 c_0_B + d_0_3_0_B >= -50
c06_d_k0_j3_m1_iA: - 50 T_3_1 - 0.00990049833749 c_0_A + d_0_3_1_A >= -50
c06_d_k0_j3_m1_iB: - 50 T_3_1 - 0.0196039734661 c_0_B + d_0_3_1_B >= -50
c06_d_k0_j3_m2_iA: - 50 T_3_2 - 4.96679133402e-05 c_0_A + d_0_3_2_A >= -50
c06_d_k0_j3_m2_iB: - 50 T_3_2 - 0.00019735322711 c_0_B + d_0_3_2_B >= -50
c06_d_k0_j4_m0_iA: - 50 T_4_0 - 0.990049833749 c_0_A + d_0_4_0_A >= -50
c06_d_k0_j4_m0_iB: - 50 T_4_0 - 0.980198673307 c_0_B + d_0_4_0_B >= -50
c06_d_k0_j4_m1_iA: - 50 T_4_1 - 0.00990049833749 c_0_A + d_0_4_1_A >= -50
c06_d_k0_j4_m1_iB: - 50 T_4_1 - 0.0196039734661 c_0_B + d_0_4_1_B >= -50
c06_d_k0_j4_m2_iA: - 50 T_4_2 - 4.96679133402e-05 c_0_A + d_0_4_2_A >= -50
c06_d_k0_j4_m2_iB: - 50 T_4_2 - 0.00019735322711 c_0_B + d_0_4_2_B >= -50
c06_d_k0_j_1_m0_iA: - 50 T__1_0 - 0.990049833749 c_0_A + d_0__1_0_A >= -50
c06_d_k0_j_1_m0_iB: - 50 T__1_0 - 0.980198673307 c_0_B + d_0__1_0_B >= -50
c06_d_k0_j_1_m1_iA: - 50 T__1_1 - 0.00990049833749 c_0_A + d_0__1_1_A >= -50
c06_d_k0_j_1_m1_iB: - 50 T__1_1 - 0.0196039734661 c_0_B + d_0__1_1_B >= -50
c06_d_k0_j_1_m2_iA: - 50 T__1_2 - 4.96679133402e-05 c_0_A + d_0__1_2_A >= -50
c06_d_k0_j_1_m2_iB: - 50 T__1_2 - 0.00019735322711 c_0_B + d_0__1_2_B >= -50
c06_d_k0_j_2_m0_iA: - 50 T__2_0 - 0.990049833749 c_0_A + d_0__2_0_A >= -50
c06_d_k0_j_2_m0_iB: - 50 T__2_0 - 0.980198673307 c_0_B + d_0__2_0_B >= -50
c06_d_k0_j_2_m1_iA: - 50 T__2_1 - 0.00990049833749 c_0_A + d_0__2_1_A >= -50
c06_d_k0_j_2_m1_iB: - 50 T__2_1 - 0.0196039734661 c_0_B + d_0__2_1_B >= -50
c06_d_k0_j_2_m2_iA: - 50 T__2_2 - 4.96679133402e-05 c_0_A + d_0__2_2_A >= -50
c06_d_k0_j_2_m2_iB: - 50 T__2_2 - 0.00019735322711 c_0_B + d_0__2_2_B >= -50
c06_d_k0_j_3_m0_iA: - 50 T__3_0 - 0.990049833749 c_0_A + d_0__3_0_A >= -50
c06_d_k0_j_3_m0_iB: - 50 T__3_0 - 0.980198673307 c_0_B + d_0__3_0_B >= -50
c06_d_k0_j_3_m1_iA: - 50 T__3_1 - 0.00990049833749 c_0_A + d_0__3_1_A >= -50
c06_d_k0_j_3_m1_iB: - 50 T__3_1 - 0.0196039734661 c_0_B + d_0__3_1_B >= -50
c06_d_k0_j_3_m2_iA: - 50 T__3_2 - 4.96679133402e-05 c_0_A + d_0__3_2_A >= -50
c06_d_k0_j_3_m2_iB: - 50 T__3_2 - 0.00019735322711 c_0_B + d_0__3_2_B >= -50
c06_d_k0_j_4_m0_iA: - 50 T__4_0 - 0.990049833749 c_0_A + d_0__4_0_A >= -50
c06_d_k0_j_4_m0_iB: - 50 T__4_0 - 0.980198673307 c_0_B + d_0__4_0_B >= -50
c06_d_k0_j_4_m1_iA: - 50 T__4_1 - 0.00990049833749 c_0_A + d_0__4_1_A >= -50
c06_d_k0_j_4_m1_iB: - 50 T__4_1 - 0.0196039734661 c_0_B + d_0__4_1_B >= -50
c06_d_k0_j_4_m2_iA: - 50 T__4_2 - 4.96679133402e-05 c_0_A + d_0__4_2_A >= -50
c06_d_k0_j_4_m2_iB: - 50 T__4_2 - 0.00019735322711 c_0_B + d_0__4_2_B >= -50
c06_d_k1_j0_m0_iA: - 50 T_0_0 - 0.990049833749 c_1_A + d_1_0_0_A >= -50
c06_d_k1_j0_m0_iB: - 50 T_0_0 - 0.980198673307 c_1_B + d_1_0_0_B >= -50
c06_d_k1_j0_m1_iA: - 50 T_0_1 - 0.00990049833749 c_1_A + d_1_0_1_A >= -50
c06_d_k1_j0_m1_iB: - 50 T_0_1 - 0.0196039734661 c_1_B + d_1_0_1_B >= -50
c06_d_k1_j0_m2_iA: - 50 T_0_2 - 4.96679133402e-05 c_1_A + d_1_0_2_A >= -50
c06_d_k1_j0_m2_iB: - 50 T_0_2 - 0.00019735322711 c_1_B + d_1_0_2_B >= -50
c06_d_k1_j1_m0_iA: - 50 T_1_0 - 0.990049833749 c_1_A + d_1_1_0_A >= -50
c06_d_k1_j1_m0_iB: - 50 T_1_0 - 0.980198673307 c_1_B + d_1_1_0_B >= -50
c06_d_k1_j1_m1_iA: - 50 T_1_1 - 0.00990049833749 c_1_A + d_1_1_1_A >= -50
c06_d_k1_j1_m1_iB: - 50 T_1_1 - 0.0196039734661 c_1_B + d_1_1_1_B >= -50
c06_d_k1_j1_m2_iA: - 50 T_1_2 - 4.96679133402e-05 c_1_A + d_1_1_2_A >= -50
c06_d_k1_j1_m2_iB: - 50 T_1_2 - 0.00019735322711 c_1_B + d_1_1_2_B >= -50
c06_d_k1_j2_m0_iA: - 50 T_2_0 - 0.990049833749 c_1_A + d_1_2_0_A >= -50
c06_d_k1_j2_m0_iB: - 50 T_2_0 - 0.980198673307 c_1_B + d_1_2_0_B >= -50
c06_d_k1_j2_m1_iA: - 50 T_2_1 - 0.00990049833749 c_1_A + d_1_2_1_A >= -50
c06_d_k1_j2_m1_iB: - 50 T_2_1 - 0.0196039734661 c_1_B + d_1_2_1_B >= -50
c06_d_k1_j2_m2_iA: - 50 T_2_2 - 4.96679133402e-05 c_1_A + d_1_2_2_A >= -50
c06_d_k1_j2_m2_iB: - 50 T_2_2 - 0.00019735322711 c_1_B + d_1_2_2_B >= -50
c06_d_k1_j3_m0_iA: - 50 T_3_0 - 0.990049833749 c_1_A + d_1_3_0_A >= -50
c06_d_k1_j3_m0_iB: - 50 T_3_0 - 0.980198673307 c_1_B + d_1_3_0_B >= -50
c06_d_k1_j3_m1_iA: - 50 T_3_1 - 0.00990049833749 c_1_A + d_1_3_1_A >= -50
c06_d_k1_j3_m1_iB: - 50 T_3_1 - 0.0196039734661 c_1_B + d_1_3_1_B >= -50
c06_d_k1_j3_m2_iA: - 50 T_3_2 - 4.96679133402e-05 c_1_A + d_1_3_2_A >= -50
c06_d_k1_j3_m2_iB: - 50 T_3_2 - 0.00019735322711 c_1_B + d_1_3_2_B >= -50
c06_d_k1_j4_m0_iA: - 50 T_4_0 - 0.990049833749 c_1_A + d_1_4_0_A >= -50
c06_d_k1_j4_m0_iB: - 50 T_4_0 - 0.980198673307 c_1_B + d_1_4_0_B >= -50
c06_d_k1_j4_m1_iA: - 50 T_4_1 - 0.00990049833749 c_1_A + d_1_4_1_A >= -50
c06_d_k1_j4_m1_iB: - 50 T_4_1 - 0.0196039734661 c_1_B + d_1_4_1_B >= -50
c06_d_k1_j4_m2_iA: - 50 T_4_2 - 4.96679133402e-05 c_1_A + d_1_4_2_A >= -50
c06_d_k1_j4_m2_iB: - 50 T_4_2 - 0.00019735322711 c_1_B + d_1_4_2_B >= -50
c06_d_k1_j_1_m0_iA: - 50 T__1_0 - 0.990049833749 c_1_A + d_1__1_0_A >= -50
c06_d_k1_j_1_m0_iB: - 50 T__1_0 - 0.980198673307 c_1_B + d_1__1_0_B >= -50
c06_d_k1_j_1_m1_iA: - 50 T__1_1 - 0.00990049833749 c_1_A + d_1__1_1_A >= -50
c06_d_k1_j_1_m1_iB: - 50 T__1_1 - 0.0196039734661 c_1_B + d_1__1_1_B >= -50
c06_d_k1_j_1_m2_iA: - 50 T__1_2 - 4.96679133402e-05 c_1_A + d_1__1_2_A >= -50
c06_d_k1_j_1_m2_iB: - 50 T__1_2 - 0.00019735322711 c_1_B + d_1__1_2_B >= -50
c06_d_k1_j_2_m0_iA: - 50 T__2_0 - 0.990049833749 c_1_A + d_1__2_0_A >= -50
c06_d_k1_j_2_m0_iB: - 50 T__2_0 - 0.980198673307 c_1_B + d_1__2_0_B >= -50
c06_d_k1_j_2_m1_iA: - 50 T__2_1 - 0.00990049833749 c_1_A + d_1__2_1_A >= -50
c06_d_k1_j_2_m1_iB: - 50 T__2_1 - 0.0196039734661 c_1_B + d_1__2_1_B >= -50
c06_d_k1_j_2_m2_iA: - 50 T__2_2 - 4.96679133402e-05 c_1_A + d_1__2_2_A >= -50
c06_d_k1_j_2_m2_iB: - 50 T__2_2 - 0.00019735322711 c_1_B + d_1__2_2_B >= -50
c06_d_k1_j_3_m0_iA: - 50 T__3_0 - 0.990049833749 c_1_A + d_1__3_0_A >= -50
c06_d_k1_j_3_m0_iB: - 50 T__3_0 - 0.980198673307 c_1_B + d_1__3_0_B >= -50
c06_d_k1_j_3_m1_iA: - 50 T__3_1 - 0.00990049833749 c_1_A + d_1__3_1_A >= -50
c06_d_k1_j_3_m1_iB: - 50 T__3_1 - 0.0196039734661 c_1_B + d_1__3_1_B >= -50
c06_d_k1_j_3_m2_iA: - 50 T__3_2 - 4.96679133402e-05 c_1_A + d_1__3_2_A >= -50
c06_d_k1_j_3_m2_iB: - 50 T__3_2 - 0.00019735322711 c_1_B + d_1__3_2_B >= -50
c06_d_k1_j_4_m0_iA: - 50 T__4_0 - 0.990049833749 c_1_A + d_1__4_0_A >= -50
c06_d_k1_j_4_m0_iB: - 50 T__4_0 - 0.980198673307 c_1_B + d_1__4_0_B >= -50
c06_d_k1_j_4_m1_iA: - 50 T__4_1 - 0.00990049833749 c_1_A + d_1__4_1_A >= -50
c06_d_k1_j_4_m1_iB: - 50 T__4_1 - 0.0196039734661 c_1_B + d_1__4_1_B >= -50
c06_d_k1_j_4_m2_iA: - 50 T__4_2 - 4.96679133402e-05 c_1_A + d_1__4_2_A >= -50
c06_d_k1_j_4_m2_iB: - 50 T__4_2 - 0.00019735322711 c_1_B + d_1__4_2_B >= -50
c06_d_k2_j0_m0_iA: - 50 T_0_0 - 0.990049833749 c_2_A + d_2_0_0_A >= -50
c06_d_k2_j0_m0_iB: - 50 T_0_0 - 0.980198673307 c_2_B + d_2_0_0_B >= -50
c06_d_k2_j0_m1_iA: - 50 T_0_1 - 0.00990049833749 c_2_A + d_2_0_1_A >= -50
c06_d_k2_j0_m1_iB: - 50 T_0_1 - 0.0196039734661 c_2_B + d_2_0_1_B >= -50
c06_d_k2_j0_m2_iA: - 50 T_0_2 - 4.96679133402e-05 c_2_A + d_2_0_2_A >= -50
c06_d_k2_j0_m2_iB: - 50 T_0_2 - 0.00019735322711 c_2_B + d_2_0_2_B >= -50
c06_d_k2_j1_m0_iA: - 50 T_1_0 - 0.990049833749 c_2_A + d_2_1_0_A >= -50
c06_d_k2_j1_m0_iB: - 50 T_1_0 - 0.980198673307 c_2_B + d_2_1_0_B >= -50
c06_d_k2_j1_m1_iA: - 50 T_1_1 - 0.00990049833749 c_2_A + d_2_1_1_A >= -50
c06_d_k2_j1_m1_iB: - 50 T_1_1 - 0.0196039734661 c_2_B + d_2_1_1_B >= -50
c06_d_k2_j1_m2_iA: - 50 T_1_2 - 4.96679133402e-05 c_2_A + d_2_1_2_A >= -50
c06_d_k2_j1_m2_iB: - 50 T_1_2 - 0.00019735322711 c_2_B + d_2_1_2_B >= -50
c06_d_k2_j2_m0_iA: - 50 T_2_0 - 0.990049833749 c_2_A + d_2_2_0_A >= -50
c06_d_k2_j2_m0_iB: - 50 T_2_0 - 0.980198673307 c_2_B + d_2_2_0_B >= -50
c06_d_k2_j2_m1_iA: - 50 T_2_1 - 0.00990049833749 c_2_A + d_2_2_1_A >= -50
c06_d_k2_j2_m1_iB: - 50 T_2_1 - 0.0196039734661 c_2_B + d_2_2_1_B >= -50
c06_d_k2_j2_m2_iA: - 50 T_2_2 - 4.96679133402e-05 c_2_A + d_2_2_2_A >= -50
c06_d_k2_j2_m2_iB: - 50 T_2_2 - 0.00019735322711 c_2_B + d_2_2_2_B >= -50
c06_d_k2_j3_m0_iA: - 50 T_3_0 - 0.990049833749 c_2_A + d_2_3_0_A >= -50
c06_d_k2_j3_m0_iB: - 50 T_3_0 - 0.980198673307 c_2_B + d_2_3_0_B >= -50
c06_d_k2_j3_m1_iA: - 50 T_3_1 - 0.00990049833749 c_2_A + d_2_3_1_A >= -50
c06_d_k2_j3_m1_iB: - 50 T_3_1 - 0.0196039734661 c_2_B + d_2_3_1_B >= -50
c06_d_k2_j3_m2_iA: - 50 T_3_2 - 4.96679133402e-05 c_2_A + d_2_3_2_A >= -50
c06_d_k2_j3_m2_iB: - 50 T_3_2 - 0.00019735322711 c_2_B + d_2_3_2_B >= -50
c06_d_k2_j4_m0_iA: - 50 T_4_0 - 0.990049833749 c_2_A + d_2_4_0_A >= -50
c06_d_k2_j4_m0_iB: - 50 T_4_0 - 0.980198673307 c_2_B + d_2_4_0_B >= -50
c06_d_k2_j4_m1_iA: - 50 T_4_1 - 0.00990049833749 c_2_A + d_2_4_1_A >= -50
c06_d_k2_j4_m1_iB: - 50 T_4_1 - 0.0196039734661 c_2_B + d_2_4_1_B >= -50
c06_d_k2_j4_m2_iA: - 50 T_4_2 - 4.96679133402e-05 c_2_A + d_2_4_2_A >= -50
c06_d_k2_j4_m2_iB: - 50 T_4_2 - 0.00019735322711 c_2_B + d_2_4_2_B >= -50
c06_d_k2_j_1_m0_iA: - 50 T__1_0 - 0.990049833749 c_2_A + d_2__1_0_A >= -50
c06_d_k2_j_1_m0_iB: - 50 T__1_0 - 0.980198673307 c_2_B + d_2__1_0_B >= -50
c06_d_k2_j_1_m1_iA: - 50 T__1_1 - 0.00990049833749 c_2_A + d_2__1_1_A >= -50
c06_d_k2_j_1_m1_iB: - 50 T__1_1 - 0.0196039734661 c_2_B + d_2__1_1_B >= -50
c06_d_k2_j_1_m2_iA: - 50 T__1_2 - 4.96679133402e-05 c_2_A + d_2__1_2_A >= -50
c06_d_k2_j_1_m2_iB: - 50 T__1_2 - 0.00019735322711 c_2_B + d_2__1_2_B >= -50
c06_d_k2_j_2_m0_iA: - 50 T__2_0 - 0.990049833749 c_2_A + d_2__2_0_A >= -50
c06_d_k2_j_2_m0_iB: - 50 T__2_0 - 0.980198673307 c_2_B + d_2__2_0_B >= -50
c06_d_k2_j_2_m1_iA: - 50 T__2_1 - 0.00990049833749 c_2_A + d_2__2_1_A >= -50
c06_d_k2_j_2_m1_iB: - 50 T__2_1 - 0.0196039734661 c_2_B + d_2__2_1_B >= -50
c06_d_k2_j_2_m2_iA: - 50 T__2_2 - 4.96679133402e-05 c_2_A + d_2__2_2_A >= -50
c06_d_k2_j_2_m2_iB: - 50 T__2_2 - 0.00019735322711 c_2_B + d_2__2_2_B >= -50
c06_d_k2_j_3_m0_iA: - 50 T__3_0 - 0.990049833749 c_2_A + d_2__3_0_A >= -50
c06_d_k2_j_3_m0_iB: - 50 T__3_0 - 0.980198673307 c_2_B + d_2__3_0_B >= -50
c06_d_k2_j_3_m1_iA: - 50 T__3_1 - 0.00990049833749 c_2_A + d_2__3_1_A >= -50
c06_d_k2_j_3_m1_iB: - 50 T__3_1 - 0.0196039734661 c_2_B + d_2__3_1_B >= -50
c06_d_k2_j_3_m2_iA: - 50 T__3_2 - 4.96679133402e-05 c_2_A + d_2__3_2_A >= -50
c06_d_k2_j_3_m2_iB: - 50 T__3_2 - 0.00019735322711 c_2_B + d_2__3_2_B >= -50
c06_d_k2_j_4_m0_iA: - 50 T__4_0 - 0.990049833749 c_2_A + d_2__4_0_A >= -50
c06_d_k2_j_4_m0_iB: - 50 T__4_0 - 0.980198673307 c_2_B + d_2__4_0_B >= -50
c06_d_k2_j_4_m1_iA: - 50 T__4_1 - 0.00990049833749 c_2_A + d_2__4_1_A >= -50
c06_d_k2_j_4_m1_iB: - 50 T__4_1 - 0.0196039734661 c_2_B + d_2__4_1_B >= -50
c06_d_k2_j_4_m2_iA: - 50 T__4_2 - 4.96679133402e-05 c_2_A + d_2__4_2_A >= -50
c06_d_k2_j_4_m2_iB: - 50 T__4_2 - 0.00019735322711 c_2_B + d_2__4_2_B >= -50
c06_d_k3_j0_m0_iA: - 50 T_0_0 - 0.990049833749 c_3_A + d_3_0_0_A >= -50
c06_d_k3_j0_m0_iB: - 50 T_0_0 - 0.980198673307 c_3_B + d_3_0_0_B >= -50
c06_d_k3_j0_m1_iA: - 50 T_0_1 - 0.00990049833749 c_3_A + d_3_0_1_A >= -50
c06_d_k3_j0_m1_iB: - 50 T_0_1 - 0.0196039734661 c_3_B + d_3_0_1_B >= -50
c06_d_k3_j0_m2_iA: - 50 T_0_2 - 4.96679133402e-05 c_3_A + d_3_0_2_A >= -50
c06_d_k3_j0_m2_iB: - 50 T_0_2 - 0.00019735322711 c_3_B + d_3_0_2_B >= -50
c06_d_k3_j1_m0_iA: - 50 T_1_0 - 0.990049833749 c_3_A + d_3_1_0_A >= -50
c06_d_k3_j1_m0_iB: - 50 T_1_0 - 0.980198673307 c_3_B + d_3_1_0_B >= -50
c06_d_k3_j1_m1_iA: - 50 T_1_1 - 0.00990049833749 c_3_A + d_3_1_1_A >= -50
c06_d_k3_j1_m1_iB: - 50 T_1_1 - 0.0196039734661 c_3_B + d_3_1_1_B >= -50
c06_d_k3_j1_m2_iA: - 50 T_1_2 - 4.96679133402e-05 c_3_A + d_3_1_2_A >= -50
c06_d_k3_j1_m2_iB: - 50 T_1_2 - 0.00019735322711 c_3_B + d_3_1_2_B >= -50
c06_d_k3_j2_m0_iA: - 50 T_2_0 - 0.990049833749 c_3_A + d_3_2_0_A >= -50
c06_d_k3_j2_m0_iB: - 50 T_2_0 - 0.980198673307 c_3_B + d_3_2_0_B >= -50
c06_d_k3_j2_m1_iA: - 50 T_2_1 - 0.00990049833749 c_3_A + d_3_2_1_A >= -50
c06_d_k3_j2_m1_iB: - 50 T_2_1 - 0.0196039734661 c_3_B + d_3_2_1_B >= -50
c06_d_k3_j2_m2_iA: - 50 T_2_2 - 4.96679133402e-05 c_3_A + d_3_2_2_A >= -50
c06_d_k3_j2_m2_iB: - 50 T_2_2 - 0.00019735322711 c_3_B + d_3_2_2_B >= -50
c06_d_k3_j3_m0_iA: - 50 T_3_0 - 0.990049833749 c_3_A + d_3_3_0_A >= -50
c06_d_k3_j3_m0_iB: - 50 T_3_0 - 0.980198673307 c_3_B + d_3_3_0_B >= -50
c06_d_k3_j3_m1_iA: - 50 T_3_1 - 0.00990049833749 c_3_A + d_3_3_1_A >= -50
c06_d_k3_j3_m1_iB: - 50 T_3_1 - 0.0196039734661 c_3_B + d_3_3_1_B >= -50
c06_d_k3_j3_m2_iA: - 50 T_3_2 - 4.96679133402e-05 c_3_A + d_3_3_2_A >= -50
c06_d_k3_j3_m2_iB: - 50 T_3_2 - 0.00019735322711 c_3_B + d_3_3_2_B >= -50
c06_d_k3_j4_m0_iA: - 50 T_4_0 - 0.990049833749 c_3_A + d_3_4_0_A >= -50
c06_d_k3_j4_m0_iB: - 50 T_4_0 - 0.980198673307 c_3_B + d_3_4_0_B >= -50
c06_d_k3_j4_m1_iA: - 50 T_4_1 - 0.00990049833749 c_3_A + d_3_4_1_A >= -50
c06_d_k3_j4_m1_iB: - 50 T_4_1 - 0.0196039734661 c_3_B + d_3_4_1_B >= -50
c06_d_k3_j4_m2_iA: - 50 T_4_2 - 4.96679133402e-05 c_3_A + d_3_4_2_A >= -50
c06_d_k3_j4_m2_iB: - 50 T_4_2 - 0.00019735322711 c_3_B + d_3_4_2_B >= -50
c06_d_k3_j_1_m0_iA: - 50 T__1_0 - 0.990049833749 c_3_A + d_3__1_0_A >= -50
c06_d_k3_j_1_m0_iB: - 50 T__1_0 - 0.980198673307 c_3_B + d_3__1_0_B >= -50
c06_d_k3_j_1_m1_iA: - 50 T__1_1 - 0.00990049833749 c_3_A + d_3__1_1_A >= -50
c06_d_k3_j_1_m1_iB: - 50 T__1_1 - 0.0196039734661 c_3_B + d_3__1_1_B >= -50
c06_d_k3_j_1_m2_iA: - 50 T__1_2 - 4.96679133402e-05 c_3_A + d_3__1_2_A >= -50
c06_d_k3_j_1_m2_iB: - 50 T__1_2 - 0.00019735322711 c_3_B + d_3__1_2_B >= -50
c06_d_k3_j_2_m0_iA: - 50 T__2_0 - 0.990049833749 c_3_A + d_3__2_0_A >= -50
c06_d_k3_j_2_m0_iB: - 50 T__2_0 - 0.980198673307 c_3_B + d_3__2_0_B >= -50
c06_d_k3_j_2_m1_iA: - 50 T__2_1 - 0.00990049833749 c_3_A + d_3__2_1_A >= -50
c06_d_k3_j_2_m1_iB: - 50 T__2_1 - 0.0196039734661 c_3_B + d_3__2_1_B >= -50
c06_d_k3_j_2_m2_iA: - 50 T__2_2 - 4.96679133402e-05 c_3_A + d_3__2_2_A >= -50
c06_d_k3_j_2_m2_iB: - 50 T__2_2 - 0.00019735322711 c_3_B + d_3__2_2_B >= -50
c06_d_k3_j_3_m0_iA: - 50 T__3_0 - 0.990049833749 c_3_A + d_3__3_0_A >= -50
c06_d_k3_j_3_m0_iB: - 50 T__3_0 - 0.980198673307 c_3_B + d_3__3_0_B >= -50
c06_d_k3_j_3_m1_iA: - 50 T__3_1 - 0.00990049833749 c_3_A + d_3__3_1_A >= -50
c06_d_k3_j_3_m1_iB: - 50 T__3_1 - 0.0196039734661 c_3_B + d_3__3_1_B >= -50
c06_d_k3_j_3_m2_iA: - 50 T__3_2 - 4.96679133402e-05 c_3_A + d_3__3_2_A >= -50
c06_d_k3_j_3_m2_iB: - 50 T__3_2 - 0.00019735322711 c_3_B + d_3__3_2_B >= -50
c06_d_k3_j_4_m0_iA: - 50 T__4_0 - 0.990049833749 c_3_A + d_3__4_0_A >= -50
c06_d_k3_j_4_m0_iB: - 50 T__4_0 - 0.980198673307 c_3_B + d_3__4_0_B >= -50
c06_d_k3_j_4_m1_iA: - 50 T__4_1 - 0.00990049833749 c_3_A + d_3__4_1_A >= -50
c06_d_k3_j_4_m1_iB: - 50 T__4_1 - 0.0196039734661 c_3_B + d_3__4_1_B >= -50
c06_d_k3_j_4_m2_iA: - 50 T__4_2 - 4.96679133402e-05 c_3_A + d_3__4_2_A >= -50
c06_d_k3_j_4_m2_iB: - 50 T__4_2 - 0.00019735322711 c_3_B + d_3__4_2_B >= -50
c06_d_k4_j0_m0_iA: - 50 T_0_0 - 0.990049833749 c_4_A + d_4_0_0_A >= -50
c06_d_k4_j0_m0_iB: - 50 T_0_0 - 0.980198673307 c_4_B + d_4_0_0_B >= -50
c06_d_k4_j0_m1_iA: - 50 T_0_1 - 0.00990049833749 c_4_A + d_4_0_1_A >= -50
c06_d_k4_j0_m1_iB: - 50 T_0_1 - 0.0196039734661 c_4_B + d_4_0_1_B >= -50
c06_d_k4_j0_m2_iA: - 50 T_0_2 - 4.96679133402e-05 c_4_A + d_4_0_2_A >= -50
c06_d_k4_j0_m2_iB: - 50 T_0_2 - 0.00019735322711 c_4_B + d_4_0_2_B >= -50
c06_d_k4_j1_m0_iA: - 50 T_1_0 - 0.990049833749 c_4_A + d_4_1_0_A >= -50
c06_d_k4_j1_m0_iB: - 50 T_1_0 - 0.980198673307 c_4_B + d_4_1_0_B >= -50
c06_d_k4_j1_m1_iA: - 50 T_1_1 - 0.00990049833749 c_4_A + d_4_1_1_A >= -50
c06_d_k4_j1_m1_iB: - 50 T_1_1 - 0.0196039734661 c_4_B + d_4_1_1_B >= -50
c06_d_k4_j1_m2_iA: - 50 T_1_2 - 4.96679133402e-05 c_4_A + d_4_1_2_A >= -50
c06_d_k4_j1_m2_iB: - 50 T_1_2 - 0.00019735322711 c_4_B + d_4_1_2_B >= -50
c06_d_k4_j2_m0_iA: - 50 T_2_0 - 0.990049833749 c_4_A + d_4_2_0_A >= -50
c06_d_k4_j2_m0_iB: - 50 T_2_0 - 0.980198673307 c_4_B + d_4_2_0_B >= -50
c06_d_k4_j2_m1_iA: - 50 T_2_1 - 0.00990049833749 c_4_A + d_4_2_1_A >= -50
c06_d_k4_j2_m1_iB: - 50 T_2_1 - 0.0196039734661 c_4_B + d_4_2_1_B >= -50
c06_d_k4_j2_m2_iA: - 50 T_2_2 - 4.96679133402e-05 c_4_A + d_4_2_2_A >= -50
c06_d_k4_j2_m2_iB: - 50 T_2_2 - 0.00019735322711 c_4_B + d_4_2_2_B >= -50
c06_d_k4_j3_m0_iA: - 50 T_3_0 - 0.990049833749 c_4_A + d_4_3_0_A >= -50
c06_d_k4_j3_m0_iB: - 50 T_3_0 - 0.980198673307 c_4_B + d_4_3_0_B >= -50
c06_d_k4_j3_m1_iA: - 50 T_3_1 - 0.00990049833749 c_4_A + d_4_3_1_A >= -50
c06_d_k4_j3_m1_iB: - 50 T_3_1 - 0.0196039734661 c_4_B + d_4_3_1_B >= -50
c06_d_k4_j3_m2_iA: - 50 T_3_2 - 4.96679133402e-05 c_4_A + d_4_3_2_A >= -50
c06_d_k4_j3_m2_iB: - 50 T_3_2 - 0.00019735322711 c_4_B + d_4_3_2_B >= -50
c06_d_k4_j4_m0_iA: - 50 T_4_0 - 0.990049833749 c_4_A + d_4_4_0_A >= -50
c06_d_k4_j4_m0_iB: - 50 T_4_0 - 0.980198673307 c_4_B + d_4_4_0_B >= -50
c06_d_k4_j4_m1_iA: - 50 T_4_1 - 0.00990049833749 c_4_A + d_4_4_1_A >= -50
c06_d_k4_j4_m1_iB: - 50 T_4_1 - 0.0196039734661 c_4_B + d_4_4_1_B >= -50
c06_d_k4_j4_m2_iA: - 50 T_4_2 - 4.96679133402e-05 c_4_A + d_4_4_2_A >= -50
c06_d_k4_j4_m2_iB: - 50 T_4_2 - 0.00019735322711 c_4_B + d_4_4_2_B >= -50
c06_d_k4_j_1_m0_iA: - 50 T__1_0 - 0.990049833749 c_4_A + d_4__1_0_A >= -50
c06_d_k4_j_1_m0_iB: - 50 T__1_0 - 0.980198673307 c_4_B + d_4__1_0_B >= -50
c06_d_k4_j_1_m1_iA: - 50 T__1_1 - 0.00990049833749 c_4_A + d_4__1_1_A >= -50
c06_d_k4_j_1_m1_iB: - 50 T__1_1 - 0.0196039734661 c_4_B + d_4__1_1_B >= -50
c06_d_k4_j_1_m2_iA: - 50 T__1_2 - 4.96679133402e-05 c_4_A + d_4__1_2_A >= -50
c06_d_k4_j_1_m2_iB: - 50 T__1_2 - 0.00019735322711 c_4_B + d_4__1_2_B >= -50
c06_d_k4_j_2_m0_iA: - 50 T__2_0 - 0.990049833749 c_4_A + d_4__2_0_A >= -50
c06_d_k4_j_2_m0_iB: - 50 T__2_0 - 0.980198673307 c_4_B + d_4__2_0_B >= -50
c06_d_k4_j_2_m1_iA: - 50 T__2_1 - 0.00990049833749 c_4_A + d_4__2_1_A >= -50
c06_d_k4_j_2_m1_iB: - 50 T__2_1 - 0.0196039734661 c_4_B + d_4__2_1_B >= -50
c06_d_k4_j_2_m2_iA: - 50 T__2_2 - 4.96679133402e-05 c_4_A + d_4__2_2_A >= -50
c06_d_k4_j_2_m2_iB: - 50 T__2_2 - 0.00019735322711 c_4_B + d_4__2_2_B >= -50
c06_d_k4_j_3_m0_iA: - 50 T__3_0 - 0.990049833749 c_4_A + d_4__3_0_A >= -50
c06_d_k4_j_3_m0_iB: - 50 T__3_0 - 0.980198673307 c_4_B + d_4__3_0_B >= -50
c06_d_k4_j_3_m1_iA: - 50 T__3_1 - 0.00990049833749 c_4_A + d_4__3_1_A >= -50
c06_d_k4_j_3_m1_iB: - 50 T__3_1 - 0.0196039734661 c_4_B + d_4__3_1_B >= -50
c06_d_k4_j_3_m2_iA: - 50 T__3_2 - 4.96679133402e-05 c_4_A + d_4__3_2_A >= -50
c06_d_k4_j_3_m2_iB: - 50 T__3_2 - 0.00019735322711 c_4_B + d_4__3_2_B >= -50
c06_d_k4_j_4_m0_iA: - 50 T__4_0 - 0.990049833749 c_4_A + d_4__4_0_A >= -50
c06_d_k4_j_4_m0_iB: - 50 T__4_0 - 0.980198673307 c_4_B + d_4__4_0_B >= -50
c06_d_k4_j_4_m1_iA: - 50 T__4_1 - 0.00990049833749 c_4_A + d_4__4_1_A >= -50
c06_d_k4_j_4_m1_iB: - 50 T__4_1 - 0.0196039734661 c_4_B + d_4__4_1_B >= -50
c06_d_k4_j_4_m2_iA: - 50 T__4_2 - 4.96679133402e-05 c_4_A + d_4__4_2_A >= -50
c06_d_k4_j_4_m2_iB: - 50 T__4_2 - 0.00019735322711 c_4_B + d_4__4_2_B >= -50
c09_trk_k1_iA: c_1_A - d_0_1_0_A - d_0_1_1_A - d_0_1_2_A - d_1_0_0_A
 - d_1_0_1_A - d_1_0_2_A - d_2__1_0_A - d_2__1_1_A - d_2__1_2_A - d_3__2_0_A
 - d_3__2_1_A - d_3__2_2_A - d_4__3_0_A - d_4__3_1_A - d_4__3_2_A = 0
c09_trk_k1_iB: c_1_B - d_0_1_0_B - d_0_1_1_B - d_0_1_2_B - d_1_0_0_B
 - d_1_0_1_B - d_1_0_2_B - d_2__1_0_B - d_2__1_1_B - d_2__1_2_B - d_3__2_0_B
 - d_3__2_1_B - d_3__2_2_B - d_4__3_0_B - d_4__3_1_B - d_4__3_2_B = 0
c09_trk_k2_iA: c_2_A - d_0_2_0_A - d_0_2_1_A - d_0_2_2_A - d_1_1_0_A
 - d_1_1_1_A - d_1_1_2_A - d_2_0_0_A - d_2_0_1_A - d_2_0_2_A - d_3__1_0_A
 - d_3__1_1_A - d_3__1_2_A - d_4__2_0_A - d_4__2_1_A - d_4__2_2_A = 0
c09_trk_k2_iB: c_2_B - d_0_2_0_B - d_0_2_1_B - d_0_2_2_B - d_1_1_0_B
 - d_1_1_1_B - d_1_1_2_B - d_2_0_0_B - d_2_0_1_B - d_2_0_2_B - d_3__1_0_B
 - d_3__1_1_B - d_3__1_2_B - d_4__2_0_B - d_4__2_1_B - d_4__2_2_B = 0
c09_trk_k3_iA: c_3_A - d_0_3_0_A - d_0_3_1_A - d_0_3_2_A - d_1_2_0_A
 - d_1_2_1_A - d_1_2_2_A - d_2_1_0_A - d_2_1_1_A - d_2_1_2_A - d_3_0_0_A
 - d_3_0_1_A - d_3_0_2_A - d_4__1_0_A - d_4__1_1_A - d_4__1_2_A = 0
c09_trk_k3_iB: c_3_B - d_0_3_0_B - d_0_3_1_B - d_0_3_2_B - d_1_2_0_B
 - d_1_2_1_B - d_1_2_2_B - d_2_1_0_B - d_2_1_1_B - d_2_1_2_B - d_3_0_0_B
 - d_3_0_1_B - d_3_0_2_B - d_4__1_0_B - d_4__1_1_B - d_4__1_2_B = 0
c10_trkK_iA: c_4_A - d_0_4_0_A - d_0_4_1_A - d_0_4_2_A - d_1_3_0_A - d_1_3_1_A
 - d_1_3_2_A - d_1_4_0_A - d_1_4_1_A - d_1_4_2_A - d_2_2_0_A - d_2_2_1_A
 - d_2_2_2_A - d_2_3_0_A - d_2_3_1_A - d_2_3_2_A - d_2_4_0_A - d_2_4_1_A
 - d_2_4_2_A - d_3_1_0_A - d_3_1_1_A - d_3_1_2_A - d_3_2_0_A - d_3_2_1_A
 - d_3_2_2_A - d_3_3_0_A - d_3_3_1_A - d_3_3_2_A - d_3_4_0_A - d_3_4_1_A
 - d_3_4_2_A - d_4_0_0_A - d_4_0_1_A - d_4_0_2_A - d_4_1_0_A - d_4_1_1_A
 - d_4_1_2_A - d_4_2_0_A - d_4_2_1_A - d_4_2_2_A - d_4_3_0_A - d_4_3_1_A
 - d_4_3_2_A - d_4_4_0_A - d_4_4_1_A - d_4_4_2_A = 0
c10_trkK_iB: c_4_B - d_0_4_0_B - d_0_4_1_B - d_0_4_2_B - d_1_3_0_B - d_1_3_1_B
 - d_1_3_2_B - d_1_4_0_B - d_1_4_1_B - d_1_4_2_B - d_2_2_0_B - d_2_2_1_B
 - d_2_2_2_B - d_2_3_0_B - d_2_3_1_B - d_2_3_2_B - d_2_4_0_B - d_2_4_1_B
 - d_2_4_2_B - d_3_1_0_B - d_3_1_1_B - d_3_1_2_B - d_3_2_0_B - d_3_2_1_B
 - d_3_2_2_B - d_3_3_0_B - d_3_3_1_B - d_3_3_2_B - d_3_4_0_B - d_3_4_1_B
 - d_3_4_2_B - d_4_0_0_B - d_4_0_1_B - d_4_0_2_B - d_4_1_0_B - d_4_1_1_B
 - d_4_1_2_B - d_4_2_0_B - d_4_2_1_B - d_4_2_2_B - d_4_3_0_B - d_4_3_1_B
 - d_4_3_2_B - d_4_4_0_B - d_4_4_1_B - d_4_4_2_B = 0
c11_trk0_iA: c_0_A - d_0_0_0_A - d_0_0_1_A - d_0_0_2_A - d_0__1_0_A
 - d_0__1_1_A - d_0__1_2_A - d_0__2_0_A - d_0__2_1_A - d_0__2_2_A - d_0__3_0_A
 - d_0__3_1_A - d_0__3_2_A - d_0__4_0_A - d_0__4_1_A - d_0__4_2_A - d_1__1_0_A
 - d_1__1_1_A - d_1__1_2_A - d_1__2_0_A - d_1__2_1_A - d_1__2_2_A - d_1__3_0_A
 - d_1__3_1_A - d_1__3_2_A - d_1__4_0_A - d_1__4_1_A - d_1__4_2_A - d_2__2_0_A
 - d_2__2_1_A - d_2__2_2_A - d_2__3_0_A - d_2__3_1_A - d_2__3_2_A - d_2__4_0_A
 - d_2__4_1_A - d_2__4_2_A - d_3__3_0_A - d_3__3_1_A - d_3__3_2_A - d_3__4_0_A
 - d_3__4_1_A - d_3__4_2_A - d_4__4_0_A - d_4__4_1_A - d_4__4_2_A = 0
c11_trk0_iB: c_0_B - d_0_0_0_B - d_0_0_1_B - d_0_0_2_B - d_0__1_0_B
 - d_0__1_1_B - d_0__1_2_B - d_0__2_0_B - d_0__2_1_B - d_0__2_2_B - d_0__3_0_B
 - d_0__3_1_B - d_0__3_2_B - d_0__4_0_B - d_0__4_1_B - d_0__4_2_B - d_1__1_0_B
 - d_1__1_1_B - d_1__1_2_B - d_1__2_0_B - d_1__2_1_B - d_1__2_2_B - d_1__3_0_B
 - d_1__3_1_B - d_1__3_2_B - d_1__4_0_B - d_1__4_1_B - d_1__4_2_B - d_2__2_0_B
 - d_2__2_1_B - d_2__2_2_B - d_2__3_0_B - d_2__3_1_B - d_2__3_2_B - d_2__4_0_B
 - d_2__4_1_B - d_2__4_2_B - d_3__3_0_B - d_3__3_1_B - d_3__3_2_B - d_3__4_0_B
 - d_3__4_1_B - d_3__4_2_B - d_4__4_0_B - d_4__4_1_B - d_4__4_2_B = 0
set_rule0: T_1_0 = 1
set_rule1: T__3_1 = 1
set_rule2: T__4_2 = 1
Bounds
0 <= c_0_A
0 <= c_0_B
0 <= c_1_A
0 <= c_1_B
0 <= c_2_A
0 <= c_2_B
0 <= c_3_A
0 <= c_3_B
0 <= c_4_A
0 <= c_4_B
0 <= d_0_0_0_A
0 <= d_0_0_0_B
0 <= d_0_0_1_A
0 <= d_0_0_1_B
0 <= d_0_0_2_A
0 <= d_0_0_2_B
0 <= d_0_1_0_A
0 <= d_0_1_0_B
0 <= d_0_1_1_A
0 <= d_0_1_1_B
0 <= d_0_1_2_A
0 <= d_0_1_2_B
0 <= d_0_2_0_A
0 <= d_0_2_0_B
0 <= d_0_2_1_A
0 <= d_0_2_1_B
0 <= d_0_2_2_A
0 <= d_0_2_2_B
0 <= d_0_3_0_A
0 <= d_0_3_0_B
0 <= d_0_3_1_A
0 <= d_0_3_1_B
0 <= d_0_3_2_A
0 <= d_0_3_2_B
0 <= d_0_4_0_A
0 <= d_0_4_0_B
0 <= d_0_4_1_A
0 <= d_0_4_1_B
0 <= d_0_4_2_A
0 <= d_0_4_2_B
0 <= d_0__1_0_A
0 <= d_0__1_0_B
0 <= d_0__1_1_A
0 <= d_0__1_1_B
0 <= d_0__1_2_A
0 <= d_0__1_2_B
0 <= d_0__2_0_A
0 <= d_0__2_0_B
0 <= d_0__2_1_A
0 <= d_0__2_1_B
0 <= d_0__2_2_A
0 <= d_0__2_2_B
0 <= d_0__3_0_A
0 <= d_0__3_0_B
0 <= d_0__3_1_A
0 <= d_0__3_1_B
0 <= d_0__3_2_A
0 <= d_0__3_2_B
0 <= d_0__4_0_A
0 <= d_0__4_0_B
0 <= d_0__4_1_A
0 <= d_0__4_1_B
0 <= d_0__4_2_A
0 <= d_0__4_2_B
0 <= d_1_0_0_A
0 <= d_1_0_0_B
0 <= d_1_0_1_A
0 <= d_1_0_1_B
0 <= d_1_0_2_A
0 <= d_1_0_2_B
0 <= d_1_1_0_A
0 <= d_1_1_0_B
0 <= d_1_1_1_A
0 <= d_1_1_1_B
0 <= d_1_1_2_A
0 <= d_1_1_2_B
0 <= d_1_2_0_A
0 <= d_1_2_0_B
0 <= d_1_2_1_A
0 <= d_1_2_1_B
0 <= d_1_2_2_A
0 <= d_1_2_2_B
0 <= d_1_3_0_A
0 <= d_1_3_0_B
0 <= d_1_3_1_A
0 <= d_1_3_1_B
0 <= d_1_3_2_A
0 <= d_1_3_2_B
0 <= d_1_4_0_A
0 <= d_1_4_0_B
0 <= d_1_4_1_A
0 <= d_1_4_1_B
0 <= d_1_4_2_A
0 <= d_1_4_2_B
0 <= d_1__1_0_A
0 <= d_1__1_0_B
0 <= d_1__1_1_A
0 <= d_1__1_1_B
0 <= d_1__1_2_A
0 <= d_1__1_2_B
0 <= d_1__2_0_A
0 <= d_1__2_0_B
0 <= d_1__2_1_A
0 <= d_1__2_1_B
0 <= d_1__2_2_A
0 <= d_1__2_2_B
0 <= d_1__3_0_A
0 <= d_1__3_0_B
0 <= d_1__3_1_A
0 <= d_1__3_1_B
0 <= d_1__3_2_A
0 <= d_1__3_2_B
0 <= d_1__4_0_A
0 <= d_1__4_0_B
0 <= d_1__4_1_A
0 <= d_1__4_1_B
0 <= d_1__4_2_A
0 <= d_1__4_2_B
0 <= d_2_0_0_A
0 <= d_2_0_0_B
0 <= d_2_0_1_A
0 <= d_2_0_1_B
0 <= d_2_0_2_A
0 <= d_2_0_2_B
0 <= d_2_1_0_A
0 <= d_2_1_0_B
0 <= d_2_1_1_A
0 <= d_2_1_1_B
0 <= d_2_1_2_A
0 <= d_2_1_2_B
0 <= d_2_2_0_A
0 <= d_2_2_0_B
0 <= d_2_2_1_A
0 <= d_2_2_1_B
0 <= d_2_2_2_A
0 <= d_2_2_2_B
0 <= d_2_3_0_A
0 <= d_2_3_0_B
0 <= d_2_3_1_A
0 <= d_2_3_1_B
0 <= d_2_3_2_A
0 <= d_2_3_2_B
0 <= d_2_4_0_A
0 <= d_2_4_0_B
0 <= d_2_4_1_A
0 <= d_2_4_1_B
0 <= d_2_4_2_A
0 <= d_2_4_2_B
0 <= d_2__1_0_A
0 <= d_2__1_0_B
0 <= d_2__1_1_A
0 <= d_2__1_1_B
0 <= d_2__1_2_A
0 <= d_2__1_2_B
0 <= d_2__2_0_A
0 <= d_2__2_0_B
0 <= d_2__2_1_A
0 <= d_2__2_1_B
0 <= d_2__2_2_A
0 <= d_2__2_2_B
0 <= d_2__3_0_A
0 <= d_2__3_0_B
0 <= d_2__3_1_A
0 <= d_2__3_1_B
0 <= d_2__3_2_A
0 <= d_2__3_2_B
0 <= d_2__4_0_A
0 <= d_2__4_0_B
0 <= d_2__4_1_A
0 <= d_2__4_1_B
0 <= d_2__4_2_A
0 <= d_2__4_2_B
0 <= d_3_0_0_A
0 <= d_3_0_0_B
0 <= d_3_0_1_A
0 <= d_3_0_1_B
0 <= d_3_0_2_A
0 <= d_3_0_2_B
0 <= d_3_1_0_A
0 <= d_3_1_0_B
0 <= d_3_1_1_A
0 <= d_3_1_1_B
0 <= d_3_1_2_A
0 <= d_3_1_2_B
0 <= d_3_2_0_A
0 <= d_3_2_0_B
0 <= d_3_2_1_A
0 <= d_3_2_1_B
0 <= d_3_2_2_A
0 <= d_3_2_2_B
0 <= d_3_3_0_A
0 <= d_3_3_0_B
0 <= d_3_3_1_A
0 <= d_3_3_1_B
0 <= d_3_3_2_A
0 <= d_3_3_2_B
0 <= d_3_4_0_A
0 <= d_3_4_0_B
0 <= d_3_4_1_A
0 <= d_3_4_1_B
0 <= d_3_4_2_A
0 <= d_3_4_2_B
0 <= d_3__1_0_A
0 <= d_3__1_0_B
0 <= d_3__1_1_A
0 <= d_3__1_1_B
0 <= d_3__1_2_A
0 <= d_3__1_2_B
0 <= d_3__2_0_A
0 <= d_3__2_0_B
0 <= d_3__2_1_A
0 <= d_3__2_1_B
0 <= d_3__2_2_A
0 <= d_3__2_2_B
0 <= d_3__3_0_A
0 <= d_3__3_0_B
0 <= d_3__3_1_A
0 <= d_3__3_1_B
0 <= d_3__3_2_A
0 <= d_3__3_2_B
0 <= d_3__4_0_A
0 <= d_3__4_0_B
0 <= d_3__4_1_A
0 <= d_3__4_1_B
0 <= d_3__4_2_A
0 <= d_3__4_2_B
0 <= d_4_0_0_A
0 <= d_4_0_0_B
0 <= d_4_0_1_A
0 <= d_4_0_1_B
0 <= d_4_0_2_A
0 <= d_4_0_2_B
0 <= d_4_1_0_A
0 <= d_4_1_0_B
0 <= d_4_1_1_A
0 <= d_4_1_1_B
0 <= d_4_1_2_A
0 <= d_4_1_2_B
0 <= d_4_2_0_A
0 <= d_4_2_0_B
0 <= d_4_2_1_A
0 <= d_4_2_1_B
0 <= d_4_2_2_A
0 <= d_4_2_2_B
0 <= d_4_3_0_A
0 <= d_4_3_0_B
0 <= d_4_3_1_A
0 <= d_4_3_1_B
0 <= d_4_3_2_A
0 <= d_4_3_2_B
0 <= d_4_4_0_A
0 <= d_4_4_0_B
0 <= d_4_4_1_A
0 <= d_4_4_1_B
0 <= d_4_4_2_A
0 <= d_4_4_2_B
0 <= d_4__1_0_A
0 <= d_4__1_0_B
0 <= d_4__1_1_A
0 <= d_4__1_1_B
0 <= d_4__1_2_A
0 <= d_4__1_2_B
0 <= d_4__2_0_A
0 <= d_4__2_0_B
0 <= d_4__2_1_A
0 <= d_4__2_1_B
0 <= d_4__2_2_A
0 <= d_4__2_2_B
0 <= d_4__3_0_A
0 <= d_4__3_0_B
0 <= d_4__3_1_A
0 <= d_4__3_1_B
0 <= d_4__3_2_A
0 <= d_4__3_2_B
0 <= d_4__4_0_A
0 <= d_4__4_0_B
0 <= d_4__4_1_A
0 <= d_4__4_1_B
0 <= d_4__4_2_A
0 <= d_4__4_2_B
Binaries
T_0_0
T_0_1
T_0_2
T_1_0
T_1_1
T_1_2
T_2_0
T_2_1
T_2_2
T_3_0
T_3_1
T_3_2
T_4_0
T_4_1
T_4_2
T__1_0
T__1_1
T__1_2
T__2_0
T__2_1
T__2_2
T__3_0
T__3_1
T__3_2
T__4_0
T__4_1
T__4_2
End
